p cnf 648 768
47 48 1 73 74 0
47 48 1 73 -74 0
47 48 1 -73 75 0
47 48 1 -73 -75 0
-47 -48 1 76 77 0
-47 -48 1 76 -77 0
-47 -48 1 -76 78 0
-47 -48 1 -76 -78 0
47 -48 -1 79 80 0
47 -48 -1 79 -80 0
47 -48 -1 -79 81 0
47 -48 -1 -79 -81 0
-47 48 -1 82 83 0
-47 48 -1 82 -83 0
-47 48 -1 -82 84 0
-47 48 -1 -82 -84 0
1 49 2 85 86 0
1 49 2 85 -86 0
1 49 2 -85 87 0
1 49 2 -85 -87 0
-1 -49 2 88 89 0
-1 -49 2 88 -89 0
-1 -49 2 -88 90 0
-1 -49 2 -88 -90 0
1 -49 -2 91 92 0
1 -49 -2 91 -92 0
1 -49 -2 -91 93 0
1 -49 -2 -91 -93 0
-1 49 -2 94 95 0
-1 49 -2 94 -95 0
-1 49 -2 -94 96 0
-1 49 -2 -94 -96 0
2 50 3 97 98 0
2 50 3 97 -98 0
2 50 3 -97 99 0
2 50 3 -97 -99 0
-2 -50 3 100 101 0
-2 -50 3 100 -101 0
-2 -50 3 -100 102 0
-2 -50 3 -100 -102 0
2 -50 -3 103 104 0
2 -50 -3 103 -104 0
2 -50 -3 -103 105 0
2 -50 -3 -103 -105 0
-2 50 -3 106 107 0
-2 50 -3 106 -107 0
-2 50 -3 -106 108 0
-2 50 -3 -106 -108 0
3 51 4 109 110 0
3 51 4 109 -110 0
3 51 4 -109 111 0
3 51 4 -109 -111 0
-3 -51 4 112 113 0
-3 -51 4 112 -113 0
-3 -51 4 -112 114 0
-3 -51 4 -112 -114 0
3 -51 -4 115 116 0
3 -51 -4 115 -116 0
3 -51 -4 -115 117 0
3 -51 -4 -115 -117 0
-3 51 -4 118 119 0
-3 51 -4 118 -119 0
-3 51 -4 -118 120 0
-3 51 -4 -118 -120 0
4 52 5 121 122 0
4 52 5 121 -122 0
4 52 5 -121 123 0
4 52 5 -121 -123 0
-4 -52 5 124 125 0
-4 -52 5 124 -125 0
-4 -52 5 -124 126 0
-4 -52 5 -124 -126 0
4 -52 -5 127 128 0
4 -52 -5 127 -128 0
4 -52 -5 -127 129 0
4 -52 -5 -127 -129 0
-4 52 -5 130 131 0
-4 52 -5 130 -131 0
-4 52 -5 -130 132 0
-4 52 -5 -130 -132 0
5 53 6 133 134 0
5 53 6 133 -134 0
5 53 6 -133 135 0
5 53 6 -133 -135 0
-5 -53 6 136 137 0
-5 -53 6 136 -137 0
-5 -53 6 -136 138 0
-5 -53 6 -136 -138 0
5 -53 -6 139 140 0
5 -53 -6 139 -140 0
5 -53 -6 -139 141 0
5 -53 -6 -139 -141 0
-5 53 -6 142 143 0
-5 53 -6 142 -143 0
-5 53 -6 -142 144 0
-5 53 -6 -142 -144 0
6 54 7 145 146 0
6 54 7 145 -146 0
6 54 7 -145 147 0
6 54 7 -145 -147 0
-6 -54 7 148 149 0
-6 -54 7 148 -149 0
-6 -54 7 -148 150 0
-6 -54 7 -148 -150 0
6 -54 -7 151 152 0
6 -54 -7 151 -152 0
6 -54 -7 -151 153 0
6 -54 -7 -151 -153 0
-6 54 -7 154 155 0
-6 54 -7 154 -155 0
-6 54 -7 -154 156 0
-6 54 -7 -154 -156 0
7 55 8 157 158 0
7 55 8 157 -158 0
7 55 8 -157 159 0
7 55 8 -157 -159 0
-7 -55 8 160 161 0
-7 -55 8 160 -161 0
-7 -55 8 -160 162 0
-7 -55 8 -160 -162 0
7 -55 -8 163 164 0
7 -55 -8 163 -164 0
7 -55 -8 -163 165 0
7 -55 -8 -163 -165 0
-7 55 -8 166 167 0
-7 55 -8 166 -167 0
-7 55 -8 -166 168 0
-7 55 -8 -166 -168 0
8 56 9 169 170 0
8 56 9 169 -170 0
8 56 9 -169 171 0
8 56 9 -169 -171 0
-8 -56 9 172 173 0
-8 -56 9 172 -173 0
-8 -56 9 -172 174 0
-8 -56 9 -172 -174 0
8 -56 -9 175 176 0
8 -56 -9 175 -176 0
8 -56 -9 -175 177 0
8 -56 -9 -175 -177 0
-8 56 -9 178 179 0
-8 56 -9 178 -179 0
-8 56 -9 -178 180 0
-8 56 -9 -178 -180 0
9 57 10 181 182 0
9 57 10 181 -182 0
9 57 10 -181 183 0
9 57 10 -181 -183 0
-9 -57 10 184 185 0
-9 -57 10 184 -185 0
-9 -57 10 -184 186 0
-9 -57 10 -184 -186 0
9 -57 -10 187 188 0
9 -57 -10 187 -188 0
9 -57 -10 -187 189 0
9 -57 -10 -187 -189 0
-9 57 -10 190 191 0
-9 57 -10 190 -191 0
-9 57 -10 -190 192 0
-9 57 -10 -190 -192 0
10 58 11 193 194 0
10 58 11 193 -194 0
10 58 11 -193 195 0
10 58 11 -193 -195 0
-10 -58 11 196 197 0
-10 -58 11 196 -197 0
-10 -58 11 -196 198 0
-10 -58 11 -196 -198 0
10 -58 -11 199 200 0
10 -58 -11 199 -200 0
10 -58 -11 -199 201 0
10 -58 -11 -199 -201 0
-10 58 -11 202 203 0
-10 58 -11 202 -203 0
-10 58 -11 -202 204 0
-10 58 -11 -202 -204 0
11 59 12 205 206 0
11 59 12 205 -206 0
11 59 12 -205 207 0
11 59 12 -205 -207 0
-11 -59 12 208 209 0
-11 -59 12 208 -209 0
-11 -59 12 -208 210 0
-11 -59 12 -208 -210 0
11 -59 -12 211 212 0
11 -59 -12 211 -212 0
11 -59 -12 -211 213 0
11 -59 -12 -211 -213 0
-11 59 -12 214 215 0
-11 59 -12 214 -215 0
-11 59 -12 -214 216 0
-11 59 -12 -214 -216 0
12 60 13 217 218 0
12 60 13 217 -218 0
12 60 13 -217 219 0
12 60 13 -217 -219 0
-12 -60 13 220 221 0
-12 -60 13 220 -221 0
-12 -60 13 -220 222 0
-12 -60 13 -220 -222 0
12 -60 -13 223 224 0
12 -60 -13 223 -224 0
12 -60 -13 -223 225 0
12 -60 -13 -223 -225 0
-12 60 -13 226 227 0
-12 60 -13 226 -227 0
-12 60 -13 -226 228 0
-12 60 -13 -226 -228 0
13 61 14 229 230 0
13 61 14 229 -230 0
13 61 14 -229 231 0
13 61 14 -229 -231 0
-13 -61 14 232 233 0
-13 -61 14 232 -233 0
-13 -61 14 -232 234 0
-13 -61 14 -232 -234 0
13 -61 -14 235 236 0
13 -61 -14 235 -236 0
13 -61 -14 -235 237 0
13 -61 -14 -235 -237 0
-13 61 -14 238 239 0
-13 61 -14 238 -239 0
-13 61 -14 -238 240 0
-13 61 -14 -238 -240 0
14 62 15 241 242 0
14 62 15 241 -242 0
14 62 15 -241 243 0
14 62 15 -241 -243 0
-14 -62 15 244 245 0
-14 -62 15 244 -245 0
-14 -62 15 -244 246 0
-14 -62 15 -244 -246 0
14 -62 -15 247 248 0
14 -62 -15 247 -248 0
14 -62 -15 -247 249 0
14 -62 -15 -247 -249 0
-14 62 -15 250 251 0
-14 62 -15 250 -251 0
-14 62 -15 -250 252 0
-14 62 -15 -250 -252 0
15 63 16 253 254 0
15 63 16 253 -254 0
15 63 16 -253 255 0
15 63 16 -253 -255 0
-15 -63 16 256 257 0
-15 -63 16 256 -257 0
-15 -63 16 -256 258 0
-15 -63 16 -256 -258 0
15 -63 -16 259 260 0
15 -63 -16 259 -260 0
15 -63 -16 -259 261 0
15 -63 -16 -259 -261 0
-15 63 -16 262 263 0
-15 63 -16 262 -263 0
-15 63 -16 -262 264 0
-15 63 -16 -262 -264 0
16 64 17 265 266 0
16 64 17 265 -266 0
16 64 17 -265 267 0
16 64 17 -265 -267 0
-16 -64 17 268 269 0
-16 -64 17 268 -269 0
-16 -64 17 -268 270 0
-16 -64 17 -268 -270 0
16 -64 -17 271 272 0
16 -64 -17 271 -272 0
16 -64 -17 -271 273 0
16 -64 -17 -271 -273 0
-16 64 -17 274 275 0
-16 64 -17 274 -275 0
-16 64 -17 -274 276 0
-16 64 -17 -274 -276 0
17 65 18 277 278 0
17 65 18 277 -278 0
17 65 18 -277 279 0
17 65 18 -277 -279 0
-17 -65 18 280 281 0
-17 -65 18 280 -281 0
-17 -65 18 -280 282 0
-17 -65 18 -280 -282 0
17 -65 -18 283 284 0
17 -65 -18 283 -284 0
17 -65 -18 -283 285 0
17 -65 -18 -283 -285 0
-17 65 -18 286 287 0
-17 65 -18 286 -287 0
-17 65 -18 -286 288 0
-17 65 -18 -286 -288 0
18 66 19 289 290 0
18 66 19 289 -290 0
18 66 19 -289 291 0
18 66 19 -289 -291 0
-18 -66 19 292 293 0
-18 -66 19 292 -293 0
-18 -66 19 -292 294 0
-18 -66 19 -292 -294 0
18 -66 -19 295 296 0
18 -66 -19 295 -296 0
18 -66 -19 -295 297 0
18 -66 -19 -295 -297 0
-18 66 -19 298 299 0
-18 66 -19 298 -299 0
-18 66 -19 -298 300 0
-18 66 -19 -298 -300 0
19 67 20 301 302 0
19 67 20 301 -302 0
19 67 20 -301 303 0
19 67 20 -301 -303 0
-19 -67 20 304 305 0
-19 -67 20 304 -305 0
-19 -67 20 -304 306 0
-19 -67 20 -304 -306 0
19 -67 -20 307 308 0
19 -67 -20 307 -308 0
19 -67 -20 -307 309 0
19 -67 -20 -307 -309 0
-19 67 -20 310 311 0
-19 67 -20 310 -311 0
-19 67 -20 -310 312 0
-19 67 -20 -310 -312 0
20 68 21 313 314 0
20 68 21 313 -314 0
20 68 21 -313 315 0
20 68 21 -313 -315 0
-20 -68 21 316 317 0
-20 -68 21 316 -317 0
-20 -68 21 -316 318 0
-20 -68 21 -316 -318 0
20 -68 -21 319 320 0
20 -68 -21 319 -320 0
20 -68 -21 -319 321 0
20 -68 -21 -319 -321 0
-20 68 -21 322 323 0
-20 68 -21 322 -323 0
-20 68 -21 -322 324 0
-20 68 -21 -322 -324 0
21 69 22 325 326 0
21 69 22 325 -326 0
21 69 22 -325 327 0
21 69 22 -325 -327 0
-21 -69 22 328 329 0
-21 -69 22 328 -329 0
-21 -69 22 -328 330 0
-21 -69 22 -328 -330 0
21 -69 -22 331 332 0
21 -69 -22 331 -332 0
21 -69 -22 -331 333 0
21 -69 -22 -331 -333 0
-21 69 -22 334 335 0
-21 69 -22 334 -335 0
-21 69 -22 -334 336 0
-21 69 -22 -334 -336 0
22 70 23 337 338 0
22 70 23 337 -338 0
22 70 23 -337 339 0
22 70 23 -337 -339 0
-22 -70 23 340 341 0
-22 -70 23 340 -341 0
-22 -70 23 -340 342 0
-22 -70 23 -340 -342 0
22 -70 -23 343 344 0
22 -70 -23 343 -344 0
22 -70 -23 -343 345 0
22 -70 -23 -343 -345 0
-22 70 -23 346 347 0
-22 70 -23 346 -347 0
-22 70 -23 -346 348 0
-22 70 -23 -346 -348 0
23 71 72 349 350 0
23 71 72 349 -350 0
23 71 72 -349 351 0
23 71 72 -349 -351 0
-23 -71 72 352 353 0
-23 -71 72 352 -353 0
-23 -71 72 -352 354 0
-23 -71 72 -352 -354 0
23 -71 -72 355 356 0
23 -71 -72 355 -356 0
23 -71 -72 -355 357 0
23 -71 -72 -355 -357 0
-23 71 -72 358 359 0
-23 71 -72 358 -359 0
-23 71 -72 -358 360 0
-23 71 -72 -358 -360 0
24 71 72 361 362 0
24 71 72 361 -362 0
24 71 72 -361 363 0
24 71 72 -361 -363 0
-24 -71 72 364 365 0
-24 -71 72 364 -365 0
-24 -71 72 -364 366 0
-24 -71 72 -364 -366 0
24 -71 -72 367 368 0
24 -71 -72 367 -368 0
24 -71 -72 -367 369 0
24 -71 -72 -367 -369 0
-24 71 -72 370 371 0
-24 71 -72 370 -371 0
-24 71 -72 -370 372 0
-24 71 -72 -370 -372 0
25 70 24 373 374 0
25 70 24 373 -374 0
25 70 24 -373 375 0
25 70 24 -373 -375 0
-25 -70 24 376 377 0
-25 -70 24 376 -377 0
-25 -70 24 -376 378 0
-25 -70 24 -376 -378 0
25 -70 -24 379 380 0
25 -70 -24 379 -380 0
25 -70 -24 -379 381 0
25 -70 -24 -379 -381 0
-25 70 -24 382 383 0
-25 70 -24 382 -383 0
-25 70 -24 -382 384 0
-25 70 -24 -382 -384 0
26 69 25 385 386 0
26 69 25 385 -386 0
26 69 25 -385 387 0
26 69 25 -385 -387 0
-26 -69 25 388 389 0
-26 -69 25 388 -389 0
-26 -69 25 -388 390 0
-26 -69 25 -388 -390 0
26 -69 -25 391 392 0
26 -69 -25 391 -392 0
26 -69 -25 -391 393 0
26 -69 -25 -391 -393 0
-26 69 -25 394 395 0
-26 69 -25 394 -395 0
-26 69 -25 -394 396 0
-26 69 -25 -394 -396 0
27 68 26 397 398 0
27 68 26 397 -398 0
27 68 26 -397 399 0
27 68 26 -397 -399 0
-27 -68 26 400 401 0
-27 -68 26 400 -401 0
-27 -68 26 -400 402 0
-27 -68 26 -400 -402 0
27 -68 -26 403 404 0
27 -68 -26 403 -404 0
27 -68 -26 -403 405 0
27 -68 -26 -403 -405 0
-27 68 -26 406 407 0
-27 68 -26 406 -407 0
-27 68 -26 -406 408 0
-27 68 -26 -406 -408 0
28 67 27 409 410 0
28 67 27 409 -410 0
28 67 27 -409 411 0
28 67 27 -409 -411 0
-28 -67 27 412 413 0
-28 -67 27 412 -413 0
-28 -67 27 -412 414 0
-28 -67 27 -412 -414 0
28 -67 -27 415 416 0
28 -67 -27 415 -416 0
28 -67 -27 -415 417 0
28 -67 -27 -415 -417 0
-28 67 -27 418 419 0
-28 67 -27 418 -419 0
-28 67 -27 -418 420 0
-28 67 -27 -418 -420 0
29 66 28 421 422 0
29 66 28 421 -422 0
29 66 28 -421 423 0
29 66 28 -421 -423 0
-29 -66 28 424 425 0
-29 -66 28 424 -425 0
-29 -66 28 -424 426 0
-29 -66 28 -424 -426 0
29 -66 -28 427 428 0
29 -66 -28 427 -428 0
29 -66 -28 -427 429 0
29 -66 -28 -427 -429 0
-29 66 -28 430 431 0
-29 66 -28 430 -431 0
-29 66 -28 -430 432 0
-29 66 -28 -430 -432 0
30 65 29 433 434 0
30 65 29 433 -434 0
30 65 29 -433 435 0
30 65 29 -433 -435 0
-30 -65 29 436 437 0
-30 -65 29 436 -437 0
-30 -65 29 -436 438 0
-30 -65 29 -436 -438 0
30 -65 -29 439 440 0
30 -65 -29 439 -440 0
30 -65 -29 -439 441 0
30 -65 -29 -439 -441 0
-30 65 -29 442 443 0
-30 65 -29 442 -443 0
-30 65 -29 -442 444 0
-30 65 -29 -442 -444 0
31 64 30 445 446 0
31 64 30 445 -446 0
31 64 30 -445 447 0
31 64 30 -445 -447 0
-31 -64 30 448 449 0
-31 -64 30 448 -449 0
-31 -64 30 -448 450 0
-31 -64 30 -448 -450 0
31 -64 -30 451 452 0
31 -64 -30 451 -452 0
31 -64 -30 -451 453 0
31 -64 -30 -451 -453 0
-31 64 -30 454 455 0
-31 64 -30 454 -455 0
-31 64 -30 -454 456 0
-31 64 -30 -454 -456 0
32 63 31 457 458 0
32 63 31 457 -458 0
32 63 31 -457 459 0
32 63 31 -457 -459 0
-32 -63 31 460 461 0
-32 -63 31 460 -461 0
-32 -63 31 -460 462 0
-32 -63 31 -460 -462 0
32 -63 -31 463 464 0
32 -63 -31 463 -464 0
32 -63 -31 -463 465 0
32 -63 -31 -463 -465 0
-32 63 -31 466 467 0
-32 63 -31 466 -467 0
-32 63 -31 -466 468 0
-32 63 -31 -466 -468 0
33 62 32 469 470 0
33 62 32 469 -470 0
33 62 32 -469 471 0
33 62 32 -469 -471 0
-33 -62 32 472 473 0
-33 -62 32 472 -473 0
-33 -62 32 -472 474 0
-33 -62 32 -472 -474 0
33 -62 -32 475 476 0
33 -62 -32 475 -476 0
33 -62 -32 -475 477 0
33 -62 -32 -475 -477 0
-33 62 -32 478 479 0
-33 62 -32 478 -479 0
-33 62 -32 -478 480 0
-33 62 -32 -478 -480 0
34 61 33 481 482 0
34 61 33 481 -482 0
34 61 33 -481 483 0
34 61 33 -481 -483 0
-34 -61 33 484 485 0
-34 -61 33 484 -485 0
-34 -61 33 -484 486 0
-34 -61 33 -484 -486 0
34 -61 -33 487 488 0
34 -61 -33 487 -488 0
34 -61 -33 -487 489 0
34 -61 -33 -487 -489 0
-34 61 -33 490 491 0
-34 61 -33 490 -491 0
-34 61 -33 -490 492 0
-34 61 -33 -490 -492 0
35 60 34 493 494 0
35 60 34 493 -494 0
35 60 34 -493 495 0
35 60 34 -493 -495 0
-35 -60 34 496 497 0
-35 -60 34 496 -497 0
-35 -60 34 -496 498 0
-35 -60 34 -496 -498 0
35 -60 -34 499 500 0
35 -60 -34 499 -500 0
35 -60 -34 -499 501 0
35 -60 -34 -499 -501 0
-35 60 -34 502 503 0
-35 60 -34 502 -503 0
-35 60 -34 -502 504 0
-35 60 -34 -502 -504 0
36 59 35 505 506 0
36 59 35 505 -506 0
36 59 35 -505 507 0
36 59 35 -505 -507 0
-36 -59 35 508 509 0
-36 -59 35 508 -509 0
-36 -59 35 -508 510 0
-36 -59 35 -508 -510 0
36 -59 -35 511 512 0
36 -59 -35 511 -512 0
36 -59 -35 -511 513 0
36 -59 -35 -511 -513 0
-36 59 -35 514 515 0
-36 59 -35 514 -515 0
-36 59 -35 -514 516 0
-36 59 -35 -514 -516 0
37 58 36 517 518 0
37 58 36 517 -518 0
37 58 36 -517 519 0
37 58 36 -517 -519 0
-37 -58 36 520 521 0
-37 -58 36 520 -521 0
-37 -58 36 -520 522 0
-37 -58 36 -520 -522 0
37 -58 -36 523 524 0
37 -58 -36 523 -524 0
37 -58 -36 -523 525 0
37 -58 -36 -523 -525 0
-37 58 -36 526 527 0
-37 58 -36 526 -527 0
-37 58 -36 -526 528 0
-37 58 -36 -526 -528 0
38 57 37 529 530 0
38 57 37 529 -530 0
38 57 37 -529 531 0
38 57 37 -529 -531 0
-38 -57 37 532 533 0
-38 -57 37 532 -533 0
-38 -57 37 -532 534 0
-38 -57 37 -532 -534 0
38 -57 -37 535 536 0
38 -57 -37 535 -536 0
38 -57 -37 -535 537 0
38 -57 -37 -535 -537 0
-38 57 -37 538 539 0
-38 57 -37 538 -539 0
-38 57 -37 -538 540 0
-38 57 -37 -538 -540 0
39 56 38 541 542 0
39 56 38 541 -542 0
39 56 38 -541 543 0
39 56 38 -541 -543 0
-39 -56 38 544 545 0
-39 -56 38 544 -545 0
-39 -56 38 -544 546 0
-39 -56 38 -544 -546 0
39 -56 -38 547 548 0
39 -56 -38 547 -548 0
39 -56 -38 -547 549 0
39 -56 -38 -547 -549 0
-39 56 -38 550 551 0
-39 56 -38 550 -551 0
-39 56 -38 -550 552 0
-39 56 -38 -550 -552 0
40 55 39 553 554 0
40 55 39 553 -554 0
40 55 39 -553 555 0
40 55 39 -553 -555 0
-40 -55 39 556 557 0
-40 -55 39 556 -557 0
-40 -55 39 -556 558 0
-40 -55 39 -556 -558 0
40 -55 -39 559 560 0
40 -55 -39 559 -560 0
40 -55 -39 -559 561 0
40 -55 -39 -559 -561 0
-40 55 -39 562 563 0
-40 55 -39 562 -563 0
-40 55 -39 -562 564 0
-40 55 -39 -562 -564 0
41 54 40 565 566 0
41 54 40 565 -566 0
41 54 40 -565 567 0
41 54 40 -565 -567 0
-41 -54 40 568 569 0
-41 -54 40 568 -569 0
-41 -54 40 -568 570 0
-41 -54 40 -568 -570 0
41 -54 -40 571 572 0
41 -54 -40 571 -572 0
41 -54 -40 -571 573 0
41 -54 -40 -571 -573 0
-41 54 -40 574 575 0
-41 54 -40 574 -575 0
-41 54 -40 -574 576 0
-41 54 -40 -574 -576 0
42 53 41 577 578 0
42 53 41 577 -578 0
42 53 41 -577 579 0
42 53 41 -577 -579 0
-42 -53 41 580 581 0
-42 -53 41 580 -581 0
-42 -53 41 -580 582 0
-42 -53 41 -580 -582 0
42 -53 -41 583 584 0
42 -53 -41 583 -584 0
42 -53 -41 -583 585 0
42 -53 -41 -583 -585 0
-42 53 -41 586 587 0
-42 53 -41 586 -587 0
-42 53 -41 -586 588 0
-42 53 -41 -586 -588 0
43 52 42 589 590 0
43 52 42 589 -590 0
43 52 42 -589 591 0
43 52 42 -589 -591 0
-43 -52 42 592 593 0
-43 -52 42 592 -593 0
-43 -52 42 -592 594 0
-43 -52 42 -592 -594 0
43 -52 -42 595 596 0
43 -52 -42 595 -596 0
43 -52 -42 -595 597 0
43 -52 -42 -595 -597 0
-43 52 -42 598 599 0
-43 52 -42 598 -599 0
-43 52 -42 -598 600 0
-43 52 -42 -598 -600 0
44 51 43 601 602 0
44 51 43 601 -602 0
44 51 43 -601 603 0
44 51 43 -601 -603 0
-44 -51 43 604 605 0
-44 -51 43 604 -605 0
-44 -51 43 -604 606 0
-44 -51 43 -604 -606 0
44 -51 -43 607 608 0
44 -51 -43 607 -608 0
44 -51 -43 -607 609 0
44 -51 -43 -607 -609 0
-44 51 -43 610 611 0
-44 51 -43 610 -611 0
-44 51 -43 -610 612 0
-44 51 -43 -610 -612 0
45 50 44 613 614 0
45 50 44 613 -614 0
45 50 44 -613 615 0
45 50 44 -613 -615 0
-45 -50 44 616 617 0
-45 -50 44 616 -617 0
-45 -50 44 -616 618 0
-45 -50 44 -616 -618 0
45 -50 -44 619 620 0
45 -50 -44 619 -620 0
45 -50 -44 -619 621 0
45 -50 -44 -619 -621 0
-45 50 -44 622 623 0
-45 50 -44 622 -623 0
-45 50 -44 -622 624 0
-45 50 -44 -622 -624 0
46 49 45 625 626 0
46 49 45 625 -626 0
46 49 45 -625 627 0
46 49 45 -625 -627 0
-46 -49 45 628 629 0
-46 -49 45 628 -629 0
-46 -49 45 -628 630 0
-46 -49 45 -628 -630 0
46 -49 -45 631 632 0
46 -49 -45 631 -632 0
46 -49 -45 -631 633 0
46 -49 -45 -631 -633 0
-46 49 -45 634 635 0
-46 49 -45 634 -635 0
-46 49 -45 -634 636 0
-46 49 -45 -634 -636 0
47 48 -46 637 638 0
47 48 -46 637 -638 0
47 48 -46 -637 639 0
47 48 -46 -637 -639 0
-47 -48 -46 640 641 0
-47 -48 -46 640 -641 0
-47 -48 -46 -640 642 0
-47 -48 -46 -640 -642 0
47 -48 46 643 644 0
47 -48 46 643 -644 0
47 -48 46 -643 645 0
47 -48 46 -643 -645 0
-47 48 46 646 647 0
-47 48 46 646 -647 0
-47 48 46 -646 648 0
-47 48 46 -646 -648 0

